; Copyright (c) 2026 The RIINA Authors. All rights reserved.
; Copyright (c) 2026 The RIINA Authors.
; Auto-generated from 02_FORMAL/coq/domains/mobile_os/LocationServices.v (22 assertions)
; Generated by scripts/generate-full-stack.py
; Module: LocationServices

(set-logic ALL)
(set-option :produce-models true)

; LocationPermission (matches Coq: Inductive LocationPermission)
(declare-datatypes ((LocationPermission 0)) (((PermNone) (PermWhenInUse) (PermAlways))))

; Location (matches Coq: Record Location)
(declare-datatypes ((Location 0))
  (((mk-location (loc_coordinate Coordinate) (loc_accuracy Meters) (loc_timestamp Int) (loc_source Int)))))

; Position (matches Coq: Record Position)
(declare-datatypes ((Position 0))
  (((mk-position (pos_coordinate Coordinate) (pos_altitude Int)))))

; Geofence (matches Coq: Record Geofence)
(declare-datatypes ((Geofence 0))
  (((mk-geofence (fence_id Int) (fence_center Coordinate) (fence_radius Meters) (fence_triggered Bool)))))

; LocationConfig (matches Coq: Record LocationConfig)
(declare-datatypes ((LocationConfig 0))
  (((mk-location_config (loc_permission LocationPermission) (loc_precision_full Bool) (loc_background_enabled Bool) (loc_cache_ttl Int) (loc_update_interval Int) (loc_significant_change_meters Int) (loc_mock_detection Bool)))))

; LocationHistory (matches Coq: Record LocationHistory)
(declare-datatypes ((LocationHistory 0))
  (((mk-location_history (history_entries list) (history_max_entries Int) (history_deletable Bool)))))

; ExtendedLocation (matches Coq: Record ExtendedLocation)
(declare-datatypes ((ExtendedLocation 0))
  (((mk-extended_location (ext_location Location) (ext_altitude Int) (ext_altitude_accuracy Int) (ext_heading Int) (ext_heading_accuracy Int) (ext_speed Int)))))

; Meters (matches Coq: Definition Meters)
(define-fun Meters () Type nat)

; Coordinate (matches Coq: Definition Coordinate)
(define-fun Coordinate () Type true)

; gps_available (matches Coq: Definition gps_available)
(define-fun gps_available () Prop True)

; error (matches Coq: Definition error)
(define-fun error ((l Location)) Meters
  (loc_accuracy l))

; distance (matches Coq: Definition distance)
(define-fun distance () Int true)

; inside (matches Coq: Definition inside)
(define-fun inside ((fence Geofence) (pos Position)) Prop
  true)

; triggered (matches Coq: Definition triggered)
(define-fun triggered ((fence Geofence)) Prop
  true)

; accurate_location_service (matches Coq: Definition accurate_location_service)
(define-fun accurate_location_service ((l Location)) Prop
  true)

; accurate_geofence_system (matches Coq: Definition accurate_geofence_system)
(define-fun accurate_geofence_system ((fence Geofence) (pos Position)) Prop
  true)

; valid_coordinate (matches Coq: Definition valid_coordinate)
(define-fun valid_coordinate ((c Coordinate)) Prop
  true)

; cache_expired (matches Coq: Definition cache_expired)
(define-fun cache_expired ((config LocationConfig)) Bool
  true)

; well_formed_location_config (matches Coq: Definition well_formed_location_config)
(define-fun well_formed_location_config ((config LocationConfig)) Prop
  true)

; location_accuracy_bounded (matches Coq: Theorem location_accuracy_bounded)
(assert (= true true)) ; location_accuracy_bounded [untranslatable]

; geofence_accurate (matches Coq: Theorem geofence_accurate)
(assert (= true true)) ; geofence_accurate [untranslatable]

; inside_within_radius (matches Coq: Theorem inside_within_radius)
(assert (= true true)) ; inside_within_radius [untranslatable]

; distance_symmetric (matches Coq: Theorem distance_symmetric)
(assert (= true true)) ; distance_symmetric [untranslatable]

; distance_self_zero (matches Coq: Theorem distance_self_zero)
(assert (forall ((c Coordinate)) (= (distance c c) 0))) ; distance_self_zero

; at_center_always_inside (matches Coq: Theorem at_center_always_inside)
(assert (= true true)) ; at_center_always_inside [untranslatable]

; location_permission_explicit (matches Coq: Theorem location_permission_explicit)
(assert (= true true)) ; location_permission_explicit [untranslatable]

; location_precision_adjustable (matches Coq: Theorem location_precision_adjustable)
(assert (= true true)) ; location_precision_adjustable [untranslatable]

; background_location_limited (matches Coq: Theorem background_location_limited)
(assert (= true true)) ; background_location_limited [untranslatable]

; geofence_battery_efficient (matches Coq: Theorem geofence_battery_efficient)
(assert (= true true)) ; geofence_battery_efficient [untranslatable]

; location_data_encrypted (matches Coq: Theorem location_data_encrypted)
(assert (= true true)) ; location_data_encrypted [untranslatable]

; no_location_tracking_without_consent (matches Coq: Theorem no_location_tracking_without_consent)
(assert (= true true)) ; no_location_tracking_without_consent [untranslatable]

; location_cache_expiry (matches Coq: Theorem location_cache_expiry)
(assert (= true true)) ; location_cache_expiry [untranslatable]

; altitude_accuracy_bounded (matches Coq: Theorem altitude_accuracy_bounded)
(assert (= true true)) ; altitude_accuracy_bounded [untranslatable]

; heading_accuracy_bounded (matches Coq: Theorem heading_accuracy_bounded)
(assert (= true true)) ; heading_accuracy_bounded [untranslatable]

; speed_non_negative (matches Coq: Theorem speed_non_negative)
(assert (= true true)) ; speed_non_negative [untranslatable]

; coordinate_range_valid (matches Coq: Theorem coordinate_range_valid)
(assert (= true true)) ; coordinate_range_valid [untranslatable]

; location_update_frequency_bounded (matches Coq: Theorem location_update_frequency_bounded)
(assert (= true true)) ; location_update_frequency_bounded [untranslatable]

; significant_change_threshold (matches Coq: Theorem significant_change_threshold)
(assert (= true true)) ; significant_change_threshold [untranslatable]

; location_history_deletable (matches Coq: Theorem location_history_deletable)
(assert (forall ((h LocationHistory)) (=> (= (history_deletable h) true) (= (history_deletable h) true)))) ; location_history_deletable

; mock_location_detectable (matches Coq: Theorem mock_location_detectable)
(assert (forall ((config LocationConfig)) (=> (= (loc_mock_detection config) true) (= (loc_mock_detection config) true)))) ; mock_location_detectable

; distance_triangle_inequality (matches Coq: Theorem distance_triangle_inequality)
(assert (= true true)) ; distance_triangle_inequality [untranslatable]

; Verify all assertions are satisfiable
(check-sat)
(exit)
